result&benchmarks/Data/Ex1/verify/Output/68-longjmp_12-counting-global_unknown_1_neg_process_dc_iter1Output/Counterexample.1.smt2
(set-info :source |printed by MathSAT|)
(declare-fun count@2 () (_ BitVec 32))
(declare-fun __ADDRESS_OF_my_jump_buffer@ () (_ BitVec 32))
(assert (let ((.def_15 (bvurem __ADDRESS_OF_my_jump_buffer@ (_ bv4 32))))(let ((.def_16 (= .def_15 (_ bv0 32))))(let ((.def_14 (bvslt (_ bv0 32) __ADDRESS_OF_my_jump_buffer@)))(let ((.def_20 (and .def_14 .def_16)))(let ((.def_18 (bvadd (_ bv164 32) __ADDRESS_OF_my_jump_buffer@)))(let ((.def_19 (bvslt (_ bv0 32) .def_18)))(let ((.def_21 (and .def_19 .def_20)))(let ((.def_11 (= count@2 (_ bv0 32))))(let ((.def_22 (and .def_11 .def_21)))(let ((.def_25 (and .def_11 .def_22))).def_25)))))))))))