result&benchmarks/Data/Ex1/verify/Output/68-longjmp_12-counting-global_unknown_1_neg_process_dc_iter1Output/Counterexample.1.txt
none:	N42 -{INIT GLOBAL VARS}-> N62
/usr/include/x86_64-linux-gnu/bits/setjmp.h, line 31:	N62 -{typedef long int __jmp_buf[8];}-> N63
/usr/include/x86_64-linux-gnu/bits/types/__sigset_t.h, lines 5-8:	N63 -{struct __anon_type___sigset_t {   unsigned long int __val[32UL]; } ;}-> N64
/usr/include/x86_64-linux-gnu/bits/types/__sigset_t.h, lines 5-8:	N64 -{typedef struct __anon_type___sigset_t __sigset_t;}-> N65
/usr/include/x86_64-linux-gnu/bits/types/struct___jmp_buf_tag.h, lines 26-35:	N65 -{struct __jmp_buf_tag {   __jmp_buf __jmpbuf;   int __mask_was_saved;   __sigset_t __saved_mask; } ;}-> N66
/usr/include/setjmp.h, line 32:	N66 -{typedef struct __jmp_buf_tag jmp_buf[1];}-> N67
/usr/include/setjmp.h, line 36:	N67 -{int setjmp(jmp_buf __env);}-> N68
/usr/include/setjmp.h, line 41:	N68 -{int __sigsetjmp(struct __jmp_buf_tag __env[1], int __savemask);}-> N69
/usr/include/setjmp.h, line 45:	N69 -{int _setjmp(struct __jmp_buf_tag __env[1]);}-> N70
/usr/include/setjmp.h, lines 54-55:	N70 -{void longjmp(struct __jmp_buf_tag __env[1], int __val);}-> N71
/usr/include/setjmp.h, lines 61-62:	N71 -{void _longjmp(struct __jmp_buf_tag __env[1], int __val);}-> N72
/usr/include/setjmp.h, line 70:	N72 -{typedef struct __jmp_buf_tag sigjmp_buf[1];}-> N73
/usr/include/setjmp.h, lines 80-81:	N73 -{void siglongjmp(sigjmp_buf __env, int __val);}-> N74
/usr/include/assert.h, lines 69-71:	N74 -{void __assert_fail(const char *__assertion, const char *__file, unsigned int __line, const char *__function);}-> N75
/usr/include/assert.h, lines 74-76:	N75 -{void __assert_perror_fail(int __errnum, const char *__file, unsigned int __line, const char *__function);}-> N76
/usr/include/assert.h, lines 81-82:	N76 -{void __assert(const char *__assertion, const char *__file, int __line);}-> N77
/usr/lib/gcc/x86_64-linux-gnu/11/include/stddef.h, line 209:	N77 -{typedef unsigned long int size_t;}-> N78
/usr/lib/gcc/x86_64-linux-gnu/11/include/stddef.h, line 321:	N78 -{typedef int wchar_t;}-> N79
/usr/include/stdlib.h, lines 59-63:	N79 -{struct __anon_type_div_t {   int quot;   int rem; } ;}-> N80
/usr/include/stdlib.h, lines 59-63:	N80 -{typedef struct __anon_type_div_t div_t;}-> N81
/usr/include/stdlib.h, lines 67-71:	N81 -{struct __anon_type_ldiv_t {   long int quot;   long int rem; } ;}-> N82
/usr/include/stdlib.h, lines 67-71:	N82 -{typedef struct __anon_type_ldiv_t ldiv_t;}-> N83
/usr/include/stdlib.h, lines 77-81:	N83 -{struct __anon_type_lldiv_t {   long long int quot;   long long int rem; } ;}-> N84
/usr/include/stdlib.h, lines 77-81:	N84 -{typedef struct __anon_type_lldiv_t lldiv_t;}-> N85
/usr/include/stdlib.h, line 98:	N85 -{size_t __ctype_get_mb_cur_max();}-> N86
/usr/include/stdlib.h, lines 102-103:	N86 -{double atof(const char *__nptr);}-> N87
/usr/include/stdlib.h, lines 105-106:	N87 -{int atoi(const char *__nptr);}-> N88
/usr/include/stdlib.h, lines 108-109:	N88 -{long int atol(const char *__nptr);}-> N89
/usr/include/stdlib.h, lines 113-114:	N89 -{long long int atoll(const char *__nptr);}-> N90
/usr/include/stdlib.h, lines 118-120:	N90 -{double strtod(const char *__nptr, char **__endptr);}-> N91
/usr/include/stdlib.h, lines 124-125:	N91 -{float strtof(const char *__nptr, char **__endptr);}-> N92
/usr/include/stdlib.h, lines 127-129:	N92 -{long double strtold(const char *__nptr, char **__endptr);}-> N93
/usr/include/stdlib.h, lines 177-179:	N93 -{long int strtol(const char *__nptr, char **__endptr, int __base);}-> N94
/usr/include/stdlib.h, lines 181-183:	N94 -{unsigned long int strtoul(const char *__nptr, char **__endptr, int __base);}-> N95
/usr/include/stdlib.h, lines 188-190:	N95 -{long long int strtoq(const char *__nptr, char **__endptr, int __base);}-> N96
/usr/include/stdlib.h, lines 193-195:	N96 -{unsigned long long int strtouq(const char *__nptr, char **__endptr, int __base);}-> N97
/usr/include/stdlib.h, lines 201-203:	N97 -{long long int strtoll(const char *__nptr, char **__endptr, int __base);}-> N98
/usr/include/stdlib.h, lines 206-208:	N98 -{unsigned long long int strtoull(const char *__nptr, char **__endptr, int __base);}-> N99
/usr/include/stdlib.h, line 386:	N99 -{char *l64a(long int __n);}-> N100
/usr/include/stdlib.h, lines 389-390:	N100 -{long int a64l(const char *__s);}-> N101
/usr/include/x86_64-linux-gnu/bits/types.h, line 31:	N101 -{typedef unsigned char __u_char;}-> N102
/usr/include/x86_64-linux-gnu/bits/types.h, line 32:	N102 -{typedef unsigned short int __u_short;}-> N103
/usr/include/x86_64-linux-gnu/bits/types.h, line 33:	N103 -{typedef unsigned int __u_int;}-> N104
/usr/include/x86_64-linux-gnu/bits/types.h, line 34:	N104 -{typedef unsigned long int __u_long;}-> N105
/usr/include/x86_64-linux-gnu/bits/types.h, line 37:	N105 -{typedef signed char __int8_t;}-> N106
/usr/include/x86_64-linux-gnu/bits/types.h, line 38:	N106 -{typedef unsigned char __uint8_t;}-> N107
/usr/include/x86_64-linux-gnu/bits/types.h, line 39:	N107 -{typedef signed short int __int16_t;}-> N108
/usr/include/x86_64-linux-gnu/bits/types.h, line 40:	N108 -{typedef unsigned short int __uint16_t;}-> N109
/usr/include/x86_64-linux-gnu/bits/types.h, line 41:	N109 -{typedef signed int __int32_t;}-> N110
/usr/include/x86_64-linux-gnu/bits/types.h, line 42:	N110 -{typedef unsigned int __uint32_t;}-> N111
/usr/include/x86_64-linux-gnu/bits/types.h, line 44:	N111 -{typedef signed long int __int64_t;}-> N112
/usr/include/x86_64-linux-gnu/bits/types.h, line 45:	N112 -{typedef unsigned long int __uint64_t;}-> N113
/usr/include/x86_64-linux-gnu/bits/types.h, line 52:	N113 -{typedef __int8_t __int_least8_t;}-> N114
/usr/include/x86_64-linux-gnu/bits/types.h, line 53:	N114 -{typedef __uint8_t __uint_least8_t;}-> N115
/usr/include/x86_64-linux-gnu/bits/types.h, line 54:	N115 -{typedef __int16_t __int_least16_t;}-> N116
/usr/include/x86_64-linux-gnu/bits/types.h, line 55:	N116 -{typedef __uint16_t __uint_least16_t;}-> N117
/usr/include/x86_64-linux-gnu/bits/types.h, line 56:	N117 -{typedef __int32_t __int_least32_t;}-> N118
/usr/include/x86_64-linux-gnu/bits/types.h, line 57:	N118 -{typedef __uint32_t __uint_least32_t;}-> N119
/usr/include/x86_64-linux-gnu/bits/types.h, line 58:	N119 -{typedef __int64_t __int_least64_t;}-> N120
/usr/include/x86_64-linux-gnu/bits/types.h, line 59:	N120 -{typedef __uint64_t __uint_least64_t;}-> N121
/usr/include/x86_64-linux-gnu/bits/types.h, line 63:	N121 -{typedef long int __quad_t;}-> N122
/usr/include/x86_64-linux-gnu/bits/types.h, line 64:	N122 -{typedef unsigned long int __u_quad_t;}-> N123
/usr/include/x86_64-linux-gnu/bits/types.h, line 72:	N123 -{typedef long int __intmax_t;}-> N124
/usr/include/x86_64-linux-gnu/bits/types.h, line 73:	N124 -{typedef unsigned long int __uintmax_t;}-> N125
/usr/include/x86_64-linux-gnu/bits/types.h, line 145:	N125 -{typedef unsigned long int __dev_t;}-> N126
/usr/include/x86_64-linux-gnu/bits/types.h, line 146:	N126 -{typedef unsigned int __uid_t;}-> N127
/usr/include/x86_64-linux-gnu/bits/types.h, line 147:	N127 -{typedef unsigned int __gid_t;}-> N128
/usr/include/x86_64-linux-gnu/bits/types.h, line 148:	N128 -{typedef unsigned long int __ino_t;}-> N129
/usr/include/x86_64-linux-gnu/bits/types.h, line 149:	N129 -{typedef unsigned long int __ino64_t;}-> N130
/usr/include/x86_64-linux-gnu/bits/types.h, line 150:	N130 -{typedef unsigned int __mode_t;}-> N131
/usr/include/x86_64-linux-gnu/bits/types.h, line 151:	N131 -{typedef unsigned long int __nlink_t;}-> N132
/usr/include/x86_64-linux-gnu/bits/types.h, line 152:	N132 -{typedef long int __off_t;}-> N133
/usr/include/x86_64-linux-gnu/bits/types.h, line 153:	N133 -{typedef long int __off64_t;}-> N134
/usr/include/x86_64-linux-gnu/bits/types.h, line 154:	N134 -{typedef int __pid_t;}-> N135
/usr/include/x86_64-linux-gnu/bits/types.h, line 155:	N135 -{struct __anon_type___fsid_t {   int __val[2]; } ;}-> N136
/usr/include/x86_64-linux-gnu/bits/types.h, line 155:	N136 -{typedef struct __anon_type___fsid_t __fsid_t;}-> N137
/usr/include/x86_64-linux-gnu/bits/types.h, line 156:	N137 -{typedef long int __clock_t;}-> N138
/usr/include/x86_64-linux-gnu/bits/types.h, line 157:	N138 -{typedef unsigned long int __rlim_t;}-> N139
/usr/include/x86_64-linux-gnu/bits/types.h, line 158:	N139 -{typedef unsigned long int __rlim64_t;}-> N140
/usr/include/x86_64-linux-gnu/bits/types.h, line 159:	N140 -{typedef unsigned int __id_t;}-> N141
/usr/include/x86_64-linux-gnu/bits/types.h, line 160:	N141 -{typedef long int __time_t;}-> N142
/usr/include/x86_64-linux-gnu/bits/types.h, line 161:	N142 -{typedef unsigned int __useconds_t;}-> N143
/usr/include/x86_64-linux-gnu/bits/types.h, line 162:	N143 -{typedef long int __suseconds_t;}-> N144
/usr/include/x86_64-linux-gnu/bits/types.h, line 163:	N144 -{typedef long int __suseconds64_t;}-> N145
/usr/include/x86_64-linux-gnu/bits/types.h, line 165:	N145 -{typedef int __daddr_t;}-> N146
/usr/include/x86_64-linux-gnu/bits/types.h, line 166:	N146 -{typedef int __key_t;}-> N147
/usr/include/x86_64-linux-gnu/bits/types.h, line 169:	N147 -{typedef int __clockid_t;}-> N148
/usr/include/x86_64-linux-gnu/bits/types.h, line 172:	N148 -{typedef void *__timer_t;}-> N149
/usr/include/x86_64-linux-gnu/bits/types.h, line 175:	N149 -{typedef long int __blksize_t;}-> N150
/usr/include/x86_64-linux-gnu/bits/types.h, line 180:	N150 -{typedef long int __blkcnt_t;}-> N151
/usr/include/x86_64-linux-gnu/bits/types.h, line 181:	N151 -{typedef long int __blkcnt64_t;}-> N152
/usr/include/x86_64-linux-gnu/bits/types.h, line 184:	N152 -{typedef unsigned long int __fsblkcnt_t;}-> N153
/usr/include/x86_64-linux-gnu/bits/types.h, line 185:	N153 -{typedef unsigned long int __fsblkcnt64_t;}-> N154
/usr/include/x86_64-linux-gnu/bits/types.h, line 188:	N154 -{typedef unsigned long int __fsfilcnt_t;}-> N155
/usr/include/x86_64-linux-gnu/bits/types.h, line 189:	N155 -{typedef unsigned long int __fsfilcnt64_t;}-> N156
/usr/include/x86_64-linux-gnu/bits/types.h, line 192:	N156 -{typedef long int __fsword_t;}-> N157
/usr/include/x86_64-linux-gnu/bits/types.h, line 194:	N157 -{typedef long int __ssize_t;}-> N158
/usr/include/x86_64-linux-gnu/bits/types.h, line 197:	N158 -{typedef long int __syscall_slong_t;}-> N159
/usr/include/x86_64-linux-gnu/bits/types.h, line 199:	N159 -{typedef unsigned long int __syscall_ulong_t;}-> N160
/usr/include/x86_64-linux-gnu/bits/types.h, line 203:	N160 -{typedef __off64_t __loff_t;}-> N161
/usr/include/x86_64-linux-gnu/bits/types.h, line 204:	N161 -{typedef char *__caddr_t;}-> N162
/usr/include/x86_64-linux-gnu/bits/types.h, line 207:	N162 -{typedef long int __intptr_t;}-> N163
/usr/include/x86_64-linux-gnu/bits/types.h, line 210:	N163 -{typedef unsigned int __socklen_t;}-> N164
/usr/include/x86_64-linux-gnu/bits/types.h, line 215:	N164 -{typedef int __sig_atomic_t;}-> N165
/usr/include/x86_64-linux-gnu/sys/types.h, line 33:	N165 -{typedef __u_char u_char;}-> N166
/usr/include/x86_64-linux-gnu/sys/types.h, line 34:	N166 -{typedef __u_short u_short;}-> N167
/usr/include/x86_64-linux-gnu/sys/types.h, line 35:	N167 -{typedef __u_int u_int;}-> N168
/usr/include/x86_64-linux-gnu/sys/types.h, line 36:	N168 -{typedef __u_long u_long;}-> N169
/usr/include/x86_64-linux-gnu/sys/types.h, line 37:	N169 -{typedef __quad_t quad_t;}-> N170
/usr/include/x86_64-linux-gnu/sys/types.h, line 38:	N170 -{typedef __u_quad_t u_quad_t;}-> N171
/usr/include/x86_64-linux-gnu/sys/types.h, line 39:	N171 -{typedef __fsid_t fsid_t;}-> N172
/usr/include/x86_64-linux-gnu/sys/types.h, line 42:	N172 -{typedef __loff_t loff_t;}-> N173
/usr/include/x86_64-linux-gnu/sys/types.h, line 47:	N173 -{typedef __ino_t ino_t;}-> N174
/usr/include/x86_64-linux-gnu/sys/types.h, line 59:	N174 -{typedef __dev_t dev_t;}-> N175
/usr/include/x86_64-linux-gnu/sys/types.h, line 64:	N175 -{typedef __gid_t gid_t;}-> N176
/usr/include/x86_64-linux-gnu/sys/types.h, line 69:	N176 -{typedef __mode_t mode_t;}-> N177
/usr/include/x86_64-linux-gnu/sys/types.h, line 74:	N177 -{typedef __nlink_t nlink_t;}-> N178
/usr/include/x86_64-linux-gnu/sys/types.h, line 79:	N178 -{typedef __uid_t uid_t;}-> N179
/usr/include/x86_64-linux-gnu/sys/types.h, line 85:	N179 -{typedef __off_t off_t;}-> N180
/usr/include/x86_64-linux-gnu/sys/types.h, line 97:	N180 -{typedef __pid_t pid_t;}-> N181
/usr/include/x86_64-linux-gnu/sys/types.h, line 103:	N181 -{typedef __id_t id_t;}-> N182
/usr/include/x86_64-linux-gnu/sys/types.h, line 108:	N182 -{typedef __ssize_t ssize_t;}-> N183
/usr/include/x86_64-linux-gnu/sys/types.h, line 114:	N183 -{typedef __daddr_t daddr_t;}-> N184
/usr/include/x86_64-linux-gnu/sys/types.h, line 115:	N184 -{typedef __caddr_t caddr_t;}-> N185
/usr/include/x86_64-linux-gnu/sys/types.h, line 121:	N185 -{typedef __key_t key_t;}-> N186
/usr/include/x86_64-linux-gnu/bits/types/clock_t.h, line 7:	N186 -{typedef __clock_t clock_t;}-> N187
/usr/include/x86_64-linux-gnu/bits/types/clockid_t.h, line 7:	N187 -{typedef __clockid_t clockid_t;}-> N188
/usr/include/x86_64-linux-gnu/bits/types/time_t.h, line 10:	N188 -{typedef __time_t time_t;}-> N189
/usr/include/x86_64-linux-gnu/bits/types/timer_t.h, line 7:	N189 -{typedef __timer_t timer_t;}-> N190
/usr/include/x86_64-linux-gnu/sys/types.h, line 148:	N190 -{typedef unsigned long int ulong;}-> N191
/usr/include/x86_64-linux-gnu/sys/types.h, line 149:	N191 -{typedef unsigned short int ushort;}-> N192
/usr/include/x86_64-linux-gnu/sys/types.h, line 150:	N192 -{typedef unsigned int uint;}-> N193
/usr/include/x86_64-linux-gnu/bits/stdint-intn.h, line 24:	N193 -{typedef __int8_t int8_t;}-> N194
/usr/include/x86_64-linux-gnu/bits/stdint-intn.h, line 25:	N194 -{typedef __int16_t int16_t;}-> N195
/usr/include/x86_64-linux-gnu/bits/stdint-intn.h, line 26:	N195 -{typedef __int32_t int32_t;}-> N196
/usr/include/x86_64-linux-gnu/bits/stdint-intn.h, line 27:	N196 -{typedef __int64_t int64_t;}-> N197
/usr/include/x86_64-linux-gnu/sys/types.h, line 158:	N197 -{typedef __uint8_t u_int8_t;}-> N198
/usr/include/x86_64-linux-gnu/sys/types.h, line 159:	N198 -{typedef __uint16_t u_int16_t;}-> N199
/usr/include/x86_64-linux-gnu/sys/types.h, line 160:	N199 -{typedef __uint32_t u_int32_t;}-> N200
/usr/include/x86_64-linux-gnu/sys/types.h, line 161:	N200 -{typedef __uint64_t u_int64_t;}-> N201
/usr/include/x86_64-linux-gnu/sys/types.h, line 164:	N201 -{typedef signed int register_t;}-> N202
/usr/include/x86_64-linux-gnu/bits/byteswap.h, lines 33-41:	N202 -{__uint16_t __bswap_16(__uint16_t __bsx);}-> N203
/usr/include/x86_64-linux-gnu/bits/byteswap.h, lines 48-56:	N203 -{__uint32_t __bswap_32(__uint32_t __bsx);}-> N204
/usr/include/x86_64-linux-gnu/bits/byteswap.h, lines 69-77:	N204 -{__uint64_t __bswap_64(__uint64_t __bsx);}-> N205
/usr/include/x86_64-linux-gnu/bits/uintn-identity.h, lines 32-36:	N205 -{__uint16_t __uint16_identity(__uint16_t __x);}-> N206
/usr/include/x86_64-linux-gnu/bits/uintn-identity.h, lines 38-42:	N206 -{__uint32_t __uint32_identity(__uint32_t __x);}-> N207
/usr/include/x86_64-linux-gnu/bits/uintn-identity.h, lines 44-48:	N207 -{__uint64_t __uint64_identity(__uint64_t __x);}-> N208
/usr/include/x86_64-linux-gnu/bits/types/sigset_t.h, line 7:	N208 -{typedef __sigset_t sigset_t;}-> N209
/usr/include/x86_64-linux-gnu/bits/types/struct_timeval.h, lines 8-17:	N209 -{struct timeval {   __time_t tv_sec;   __suseconds_t tv_usec; } ;}-> N210
/usr/include/x86_64-linux-gnu/bits/types/struct_timespec.h, lines 11-31:	N210 -{struct timespec {   __time_t tv_sec;   __syscall_slong_t tv_nsec; } ;}-> N211
/usr/include/x86_64-linux-gnu/sys/select.h, line 43:	N211 -{typedef __suseconds_t suseconds_t;}-> N212
/usr/include/x86_64-linux-gnu/sys/select.h, line 49:	N212 -{typedef long int __fd_mask;}-> N213
/usr/include/x86_64-linux-gnu/sys/select.h, lines 59-70:	N213 -{struct __anon_type_fd_set {   __fd_mask __fds_bits[32]; } ;}-> N214
/usr/include/x86_64-linux-gnu/sys/select.h, lines 59-70:	N214 -{typedef struct __anon_type_fd_set fd_set;}-> N215
/usr/include/x86_64-linux-gnu/sys/select.h, line 77:	N215 -{typedef __fd_mask fd_mask;}-> N216
/usr/include/x86_64-linux-gnu/sys/select.h, lines 102-105:	N216 -{int select(int __nfds, fd_set *__readfds, fd_set *__writefds, fd_set *__exceptfds, struct timeval *__timeout);}-> N217
/usr/include/x86_64-linux-gnu/sys/select.h, lines 127-131:	N217 -{int pselect(int __nfds, fd_set *__readfds, fd_set *__writefds, fd_set *__exceptfds, const struct timespec *__timeout, const __sigset_t *__sigmask);}-> N218
/usr/include/x86_64-linux-gnu/sys/types.h, line 185:	N218 -{typedef __blksize_t blksize_t;}-> N219
/usr/include/x86_64-linux-gnu/sys/types.h, line 192:	N219 -{typedef __blkcnt_t blkcnt_t;}-> N220
/usr/include/x86_64-linux-gnu/sys/types.h, line 196:	N220 -{typedef __fsblkcnt_t fsblkcnt_t;}-> N221
/usr/include/x86_64-linux-gnu/sys/types.h, line 200:	N221 -{typedef __fsfilcnt_t fsfilcnt_t;}-> N222
/usr/include/x86_64-linux-gnu/bits/atomic_wide_counter.h, lines 28-32:	N222 -{struct __anon_type_0 {   unsigned int __low;   unsigned int __high; } ;}-> N223
/usr/include/x86_64-linux-gnu/bits/atomic_wide_counter.h, lines 25-33:	N223 -{union __anon_type___atomic_wide_counter {   unsigned long long int __value64;   struct __anon_type_0 __value32; } ;}-> N224
/usr/include/x86_64-linux-gnu/bits/atomic_wide_counter.h, lines 25-33:	N224 -{typedef union __anon_type___atomic_wide_counter __atomic_wide_counter;}-> N225
/usr/include/x86_64-linux-gnu/bits/thread-shared-types.h, lines 51-55:	N225 -{struct __pthread_internal_list {   struct __pthread_internal_list *__prev;   struct __pthread_internal_list *__next; } ;}-> N226
/usr/include/x86_64-linux-gnu/bits/thread-shared-types.h, lines 51-55:	N226 -{typedef struct __pthread_internal_list __pthread_list_t;}-> N227
/usr/include/x86_64-linux-gnu/bits/thread-shared-types.h, lines 57-60:	N227 -{struct __pthread_internal_slist {   struct __pthread_internal_slist *__next; } ;}-> N228
/usr/include/x86_64-linux-gnu/bits/thread-shared-types.h, lines 57-60:	N228 -{typedef struct __pthread_internal_slist __pthread_slist_t;}-> N229
/usr/include/x86_64-linux-gnu/bits/struct_mutex.h, lines 22-53:	N229 -{struct __pthread_mutex_s {   int __lock;   unsigned int __count;   int __owner;   unsigned int __nusers;   int __kind;   short __spins;   short __elision;   __pthread_list_t __list; } ;}-> N230
/usr/include/x86_64-linux-gnu/bits/struct_rwlock.h, lines 23-55:	N230 -{struct __pthread_rwlock_arch_t {   unsigned int __readers;   unsigned int __writers;   unsigned int __wrphase_futex;   unsigned int __writers_futex;   unsigned int __pad3;   unsigned int __pad4;   int __cur_writer;   int __shared;   signed char __rwelision;   unsigned char __pad1[7];   unsigned long int __pad2;   unsigned int __flags; } ;}-> N231
/usr/include/x86_64-linux-gnu/bits/thread-shared-types.h, lines 94-103:	N231 -{struct __pthread_cond_s {   __atomic_wide_counter __wseq;   __atomic_wide_counter __g1_start;   unsigned int __g_refs[2];   unsigned int __g_size[2];   unsigned int __g1_orig_size;   unsigned int __wrefs;   unsigned int __g_signals[2]; } ;}-> N232
/usr/include/x86_64-linux-gnu/bits/thread-shared-types.h, line 105:	N232 -{typedef unsigned int __tss_t;}-> N233
/usr/include/x86_64-linux-gnu/bits/thread-shared-types.h, line 106:	N233 -{typedef unsigned long int __thrd_t;}-> N234
/usr/include/x86_64-linux-gnu/bits/thread-shared-types.h, lines 108-111:	N234 -{struct __anon_type___once_flag {   int __data; } ;}-> N235
/usr/include/x86_64-linux-gnu/bits/thread-shared-types.h, lines 108-111:	N235 -{typedef struct __anon_type___once_flag __once_flag;}-> N236
/usr/include/x86_64-linux-gnu/bits/pthreadtypes.h, line 27:	N236 -{typedef unsigned long int pthread_t;}-> N237
/usr/include/x86_64-linux-gnu/bits/pthreadtypes.h, lines 32-36:	N237 -{union __anon_type_pthread_mutexattr_t {   char __size[4];   int __align; } ;}-> N238
/usr/include/x86_64-linux-gnu/bits/pthreadtypes.h, lines 32-36:	N238 -{typedef union __anon_type_pthread_mutexattr_t pthread_mutexattr_t;}-> N239
/usr/include/x86_64-linux-gnu/bits/pthreadtypes.h, lines 41-45:	N239 -{union __anon_type_pthread_condattr_t {   char __size[4];   int __align; } ;}-> N240
/usr/include/x86_64-linux-gnu/bits/pthreadtypes.h, lines 41-45:	N240 -{typedef union __anon_type_pthread_mutexattr_t pthread_condattr_t;}-> N241
/usr/include/x86_64-linux-gnu/bits/pthreadtypes.h, line 49:	N241 -{typedef unsigned int pthread_key_t;}-> N242
/usr/include/x86_64-linux-gnu/bits/pthreadtypes.h, line 53:	N242 -{typedef int pthread_once_t;}-> N243
/usr/include/x86_64-linux-gnu/bits/pthreadtypes.h, lines 56-60:	N243 -{union pthread_attr_t {   char __size[56];   long int __align; } ;}-> N244
/usr/include/x86_64-linux-gnu/bits/pthreadtypes.h, line 62:	N244 -{typedef union pthread_attr_t pthread_attr_t;}-> N245
/usr/include/x86_64-linux-gnu/bits/pthreadtypes.h, lines 67-72:	N245 -{union __anon_type_pthread_mutex_t {   struct __pthread_mutex_s __data;   char __size[40];   long int __align; } ;}-> N246
/usr/include/x86_64-linux-gnu/bits/pthreadtypes.h, lines 67-72:	N246 -{typedef union __anon_type_pthread_mutex_t pthread_mutex_t;}-> N247
/usr/include/x86_64-linux-gnu/bits/pthreadtypes.h, lines 75-80:	N247 -{union __anon_type_pthread_cond_t {   struct __pthread_cond_s __data;   char __size[48];   long long int __align; } ;}-> N248
/usr/include/x86_64-linux-gnu/bits/pthreadtypes.h, lines 75-80:	N248 -{typedef union __anon_type_pthread_cond_t pthread_cond_t;}-> N249
/usr/include/x86_64-linux-gnu/bits/pthreadtypes.h, lines 86-91:	N249 -{union __anon_type_pthread_rwlock_t {   struct __pthread_rwlock_arch_t __data;   char __size[56];   long int __align; } ;}-> N250
/usr/include/x86_64-linux-gnu/bits/pthreadtypes.h, lines 86-91:	N250 -{typedef union __anon_type_pthread_rwlock_t pthread_rwlock_t;}-> N251
/usr/include/x86_64-linux-gnu/bits/pthreadtypes.h, lines 93-97:	N251 -{union __anon_type_pthread_rwlockattr_t {   char __size[8];   long int __align; } ;}-> N252
/usr/include/x86_64-linux-gnu/bits/pthreadtypes.h, lines 93-97:	N252 -{typedef union __anon_type_pthread_rwlockattr_t pthread_rwlockattr_t;}-> N253
/usr/include/x86_64-linux-gnu/bits/pthreadtypes.h, line 103:	N253 -{typedef volatile int pthread_spinlock_t;}-> N254
/usr/include/x86_64-linux-gnu/bits/pthreadtypes.h, lines 108-112:	N254 -{union __anon_type_pthread_barrier_t {   char __size[32];   long int __align; } ;}-> N255
/usr/include/x86_64-linux-gnu/bits/pthreadtypes.h, lines 108-112:	N255 -{typedef union __anon_type_pthread_barrier_t pthread_barrier_t;}-> N256
/usr/include/x86_64-linux-gnu/bits/pthreadtypes.h, lines 114-118:	N256 -{union __anon_type_pthread_barrierattr_t {   char __size[4];   int __align; } ;}-> N257
/usr/include/x86_64-linux-gnu/bits/pthreadtypes.h, lines 114-118:	N257 -{typedef union __anon_type_pthread_mutexattr_t pthread_barrierattr_t;}-> N258
/usr/include/stdlib.h, line 402:	N258 -{long int random();}-> N259
/usr/include/stdlib.h, line 405:	N259 -{void srandom(unsigned int __seed);}-> N260
/usr/include/stdlib.h, lines 411-412:	N260 -{char *initstate(unsigned int __seed, char *__statebuf, size_t __statelen);}-> N261
/usr/include/stdlib.h, line 416:	N261 -{char *setstate(char *__statebuf);}-> N262
/usr/include/stdlib.h, lines 424-433:	N262 -{struct random_data {   int32_t *fptr;   int32_t *rptr;   int32_t *state;   int rand_type;   int rand_deg;   int rand_sep;   int32_t *end_ptr; } ;}-> N263
/usr/include/stdlib.h, lines 435-436:	N263 -{int random_r(struct random_data *__buf, int32_t *__result);}-> N264
/usr/include/stdlib.h, lines 438-439:	N264 -{int srandom_r(unsigned int __seed, struct random_data *__buf);}-> N265
/usr/include/stdlib.h, lines 441-444:	N265 -{int initstate_r(unsigned int __seed, char *__statebuf, size_t __statelen, struct random_data *__buf);}-> N266
/usr/include/stdlib.h, lines 446-448:	N266 -{int setstate_r(char *__statebuf, struct random_data *__buf);}-> N267
/usr/include/stdlib.h, line 454:	N267 -{int rand();}-> N268
/usr/include/stdlib.h, line 456:	N268 -{void srand(unsigned int __seed);}-> N269
/usr/include/stdlib.h, line 460:	N269 -{int rand_r(unsigned int *__seed);}-> N270
/usr/include/stdlib.h, line 468:	N270 -{double drand48();}-> N271
/usr/include/stdlib.h, line 469:	N271 -{double erand48(unsigned short int __xsubi[3]);}-> N272
/usr/include/stdlib.h, line 472:	N272 -{long int lrand48();}-> N273
/usr/include/stdlib.h, lines 473-474:	N273 -{long int nrand48(unsigned short int __xsubi[3]);}-> N274
/usr/include/stdlib.h, line 477:	N274 -{long int mrand48();}-> N275
/usr/include/stdlib.h, lines 478-479:	N275 -{long int jrand48(unsigned short int __xsubi[3]);}-> N276
/usr/include/stdlib.h, line 482:	N276 -{void srand48(long int __seedval);}-> N277
/usr/include/stdlib.h, lines 483-484:	N277 -{unsigned short int *seed48(unsigned short int __seed16v[3]);}-> N278
/usr/include/stdlib.h, line 485:	N278 -{void lcong48(unsigned short int __param[7]);}-> N279
/usr/include/stdlib.h, lines 491-499:	N279 -{struct drand48_data {   unsigned short int __x[3];   unsigned short int __old_x[3];   unsigned short int __c;   unsigned short int __init;   unsigned long long int __a; } ;}-> N280
/usr/include/stdlib.h, lines 502-503:	N280 -{int drand48_r(struct drand48_data *__buffer, double *__result);}-> N281
/usr/include/stdlib.h, lines 504-506:	N281 -{int erand48_r(unsigned short int __xsubi[3], struct drand48_data *__buffer, double *__result);}-> N282
/usr/include/stdlib.h, lines 509-511:	N282 -{int lrand48_r(struct drand48_data *__buffer, long int *__result);}-> N283
/usr/include/stdlib.h, lines 512-515:	N283 -{int nrand48_r(unsigned short int __xsubi[3], struct drand48_data *__buffer, long int *__result);}-> N284
/usr/include/stdlib.h, lines 518-520:	N284 -{int mrand48_r(struct drand48_data *__buffer, long int *__result);}-> N285
/usr/include/stdlib.h, lines 521-524:	N285 -{int jrand48_r(unsigned short int __xsubi[3], struct drand48_data *__buffer, long int *__result);}-> N286
/usr/include/stdlib.h, lines 527-528:	N286 -{int srand48_r(long int __seedval, struct drand48_data *__buffer);}-> N287
/usr/include/stdlib.h, lines 530-531:	N287 -{int seed48_r(unsigned short int __seed16v[3], struct drand48_data *__buffer);}-> N288
/usr/include/stdlib.h, lines 533-535:	N288 -{int lcong48_r(unsigned short int __param[7], struct drand48_data *__buffer);}-> N289
/usr/include/stdlib.h, lines 540-541:	N289 -{void *malloc(size_t __size);}-> N290
/usr/include/stdlib.h, lines 543-544:	N290 -{void *calloc(size_t __nmemb, size_t __size);}-> N291
/usr/include/stdlib.h, lines 551-552:	N291 -{void *realloc(void *__ptr, size_t __size);}-> N292
/usr/include/stdlib.h, line 555:	N292 -{void free(void *__ptr);}-> N293
/usr/include/stdlib.h, lines 563-566:	N293 -{void *reallocarray(void *__ptr, size_t __nmemb, size_t __size);}-> N294
/usr/include/alloca.h, line 32:	N294 -{void *alloca(size_t __size);}-> N295
/usr/include/stdlib.h, lines 580-581:	N295 -{void *valloc(size_t __size);}-> N296
/usr/include/stdlib.h, lines 586-587:	N296 -{int posix_memalign(void **__memptr, size_t __alignment, size_t __size);}-> N297
/usr/include/stdlib.h, lines 592-594:	N297 -{void *aligned_alloc(size_t __alignment, size_t __size);}-> N298
/usr/include/stdlib.h, line 598:	N298 -{void abort();}-> N299
/usr/include/stdlib.h, line 602:	N299 -{int atexit(void (*__func)());}-> N300
/usr/include/stdlib.h, line 610:	N300 -{int at_quick_exit(void (*__func)());}-> N301
/usr/include/stdlib.h, lines 617-618:	N301 -{int on_exit(void (*__func)(int __status, void *__arg), void *__arg);}-> N302
/usr/include/stdlib.h, line 624:	N302 -{void exit(int __status);}-> N303
/usr/include/stdlib.h, line 630:	N303 -{void quick_exit(int __status);}-> N304
/usr/include/stdlib.h, line 636:	N304 -{void _Exit(int __status);}-> N305
/usr/include/stdlib.h, line 641:	N305 -{char *getenv(const char *__name);}-> N306
/usr/include/stdlib.h, line 654:	N306 -{int putenv(char *__string);}-> N307
/usr/include/stdlib.h, lines 660-661:	N307 -{int setenv(const char *__name, const char *__value, int __replace);}-> N308
/usr/include/stdlib.h, line 664:	N308 -{int unsetenv(const char *__name);}-> N309
/usr/include/stdlib.h, line 671:	N309 -{int clearenv();}-> N310
/usr/include/stdlib.h, line 682:	N310 -{char *mktemp(char *__template);}-> N311
/usr/include/stdlib.h, line 695:	N311 -{int mkstemp(char *__template);}-> N312
/usr/include/stdlib.h, line 717:	N312 -{int mkstemps(char *__template, int __suffixlen);}-> N313
/usr/include/stdlib.h, line 738:	N313 -{char *mkdtemp(char *__template);}-> N314
/usr/include/stdlib.h, line 791:	N314 -{int system(const char *__command);}-> N315
/usr/include/stdlib.h, lines 808-809:	N315 -{char *realpath(const char *__name, char *__resolved);}-> N316
/usr/include/stdlib.h, line 816:	N316 -{typedef int (*__compar_fn_t)(const void *, const void *);}-> N317
/usr/include/stdlib.h, lines 828-830:	N317 -{void *bsearch(const void *__key, const void *__base, size_t __nmemb, size_t __size, __compar_fn_t __compar);}-> N318
/usr/include/stdlib.h, lines 838-839:	N318 -{void qsort(void *__base, size_t __nmemb, size_t __size, __compar_fn_t __compar);}-> N319
/usr/include/stdlib.h, line 848:	N319 -{int abs(int __x);}-> N320
/usr/include/stdlib.h, line 849:	N320 -{long int labs(long int __x);}-> N321
/usr/include/stdlib.h, lines 852-853:	N321 -{long long int llabs(long long int __x);}-> N322
/usr/include/stdlib.h, lines 860-861:	N322 -{div_t div(int __numer, int __denom);}-> N323
/usr/include/stdlib.h, lines 862-863:	N323 -{ldiv_t ldiv(long int __numer, long int __denom);}-> N324
/usr/include/stdlib.h, lines 866-868:	N324 -{lldiv_t lldiv(long long int __numer, long long int __denom);}-> N325
/usr/include/stdlib.h, lines 880-881:	N325 -{char *ecvt(double __value, int __ndigit, int *__decpt, int *__sign);}-> N326
/usr/include/stdlib.h, lines 886-887:	N326 -{char *fcvt(double __value, int __ndigit, int *__decpt, int *__sign);}-> N327
/usr/include/stdlib.h, lines 892-893:	N327 -{char *gcvt(double __value, int __ndigit, char *__buf);}-> N328
/usr/include/stdlib.h, lines 898-900:	N328 -{char *qecvt(long double __value, int __ndigit, int *__decpt, int *__sign);}-> N329
/usr/include/stdlib.h, lines 901-903:	N329 -{char *qfcvt(long double __value, int __ndigit, int *__decpt, int *__sign);}-> N330
/usr/include/stdlib.h, lines 904-905:	N330 -{char *qgcvt(long double __value, int __ndigit, char *__buf);}-> N331
/usr/include/stdlib.h, lines 910-912:	N331 -{int ecvt_r(double __value, int __ndigit, int *__decpt, int *__sign, char *__buf, size_t __len);}-> N332
/usr/include/stdlib.h, lines 913-915:	N332 -{int fcvt_r(double __value, int __ndigit, int *__decpt, int *__sign, char *__buf, size_t __len);}-> N333
/usr/include/stdlib.h, lines 917-920:	N333 -{int qecvt_r(long double __value, int __ndigit, int *__decpt, int *__sign, char *__buf, size_t __len);}-> N334
/usr/include/stdlib.h, lines 921-924:	N334 -{int qfcvt_r(long double __value, int __ndigit, int *__decpt, int *__sign, char *__buf, size_t __len);}-> N335
/usr/include/stdlib.h, line 930:	N335 -{int mblen(const char *__s, size_t __n);}-> N336
/usr/include/stdlib.h, lines 933-934:	N336 -{int mbtowc(wchar_t *__pwc, const char *__s, size_t __n);}-> N337
/usr/include/stdlib.h, line 937:	N337 -{int wctomb(char *__s, wchar_t __wchar);}-> N338
/usr/include/stdlib.h, lines 941-943:	N338 -{size_t mbstowcs(wchar_t *__pwcs, const char *__s, size_t __n);}-> N339
/usr/include/stdlib.h, lines 945-949:	N339 -{size_t wcstombs(char *__s, const wchar_t *__pwcs, size_t __n);}-> N340
/usr/include/stdlib.h, line 956:	N340 -{int rpmatch(const char *__response);}-> N341
/usr/include/stdlib.h, lines 967-970:	N341 -{int getsubopt(char **__optionp, char * const *__tokens, char **__valuep);}-> N342
/usr/include/stdlib.h, lines 1013-1014:	N342 -{int getloadavg(double __loadavg[], int __nelem);}-> N343
line 6:	N343 -{int count = 0;}-> N344
	count == 0;
line 7:	N344 -{jmp_buf my_jump_buffer = {  };}-> N345
	(&my_jump_buffer) == 4LL;
	(&(my_jump_buffer[0])) == 4LL;
	(&((my_jump_buffer[0]).__jmpbuf)) == 4LL;
	(&((my_jump_buffer[0]).__saved_mask)) == 40LL;
	(&((my_jump_buffer[0]).__saved_mask.__val)) == 40LL;
lines 9-11:	N345 -{void assume(int cond);}-> N346
lines 13-16:	N346 -{void foo();}-> N347
lines 18-27:	N347 -{int main();}-> N348
none:	N348 -{Function start dummy edge}-> N43
line 19:	N43 -{_setjmp(my_jump_buffer);}-> N44
line 20:	N44 -{[count == 0]}-> N46
	count == 0;
	count == 0;
line 21:	N46 -{int __CPAchecker_TMP_2;}-> N47
line 21:	N47 -{}-> N49
line 21:	N49 -{__CPAchecker_TMP_2 = 0;}-> N51
line 21:	N51 -{4UL;}-> N52
line 21:	N52 -{}-> N55
line 21:	N55 -{__assert_fail("0 && \"Assertion failed: count should not be 0\"", "/home/zyl/biVerify/CPA_DATA2/C/F/llmfix/realOutput/iterationTry/68-longjmp_12-counting-global_unknown_1_neg_process_dc_iter1.c", 21, "__PRETTY_FUNCTION__");}-> N351
